db/data/17379507822697315492856234113194310828.z3.out
-------------------
2500.129084854
